p edge 82 1583
e 1 2
e 1 6
e 1 7
e 1 8
e 1 12
e 1 14
e 1 16
e 1 17
e 1 18
e 1 22
e 1 24
e 1 26
e 1 27
e 1 29
e 1 33
e 1 34
e 1 37
e 1 39
e 1 40
e 1 42
e 1 45
e 1 46
e 1 47
e 1 49
e 1 57
e 1 59
e 1 61
e 1 62
e 1 63
e 1 65
e 1 69
e 1 72
e 1 75
e 1 76
e 1 77
e 1 79
e 1 80
e 1 81
e 2 3
e 2 9
e 2 12
e 2 13
e 2 16
e 2 17
e 2 18
e 2 20
e 2 21
e 2 22
e 2 25
e 2 28
e 2 31
e 2 34
e 2 35
e 2 44
e 2 45
e 2 46
e 2 50
e 2 56
e 2 57
e 2 62
e 2 65
e 2 66
e 2 68
e 2 71
e 2 74
e 2 78
e 2 79
e 3 4
e 3 5
e 3 6
e 3 7
e 3 9
e 3 12
e 3 13
e 3 15
e 3 16
e 3 18
e 3 22
e 3 23
e 3 26
e 3 37
e 3 39
e 3 41
e 3 42
e 3 45
e 3 46
e 3 47
e 3 49
e 3 51
e 3 63
e 3 69
e 3 71
e 3 73
e 3 75
e 3 79
e 3 81
e 3 82
e 4 6
e 4 8
e 4 11
e 4 15
e 4 16
e 4 17
e 4 18
e 4 24
e 4 30
e 4 31
e 4 32
e 4 36
e 4 37
e 4 41
e 4 42
e 4 44
e 4 45
e 4 47
e 4 49
e 4 52
e 4 53
e 4 54
e 4 55
e 4 56
e 4 58
e 4 59
e 4 62
e 4 63
e 4 64
e 4 65
e 4 67
e 4 69
e 4 72
e 4 73
e 4 74
e 4 76
e 4 77
e 4 79
e 5 8
e 5 11
e 5 12
e 5 14
e 5 15
e 5 18
e 5 19
e 5 21
e 5 22
e 5 26
e 5 28
e 5 29
e 5 30
e 5 34
e 5 37
e 5 41
e 5 49
e 5 51
e 5 52
e 5 53
e 5 54
e 5 55
e 5 59
e 5 61
e 5 62
e 5 64
e 5 67
e 5 69
e 5 71
e 5 72
e 5 73
e 5 75
e 5 76
e 5 77
e 5 78
e 5 81
e 5 82
e 6 7
e 6 9
e 6 10
e 6 13
e 6 14
e 6 15
e 6 16
e 6 17
e 6 19
e 6 25
e 6 32
e 6 33
e 6 34
e 6 40
e 6 41
e 6 42
e 6 46
e 6 49
e 6 50
e 6 54
e 6 55
e 6 58
e 6 59
e 6 60
e 6 62
e 6 64
e 6 67
e 6 68
e 6 70
e 6 71
e 6 72
e 6 76
e 6 77
e 6 78
e 6 79
e 7 12
e 7 14
e 7 16
e 7 18
e 7 21
e 7 27
e 7 28
e 7 30
e 7 31
e 7 32
e 7 34
e 7 38
e 7 40
e 7 41
e 7 43
e 7 44
e 7 45
e 7 50
e 7 52
e 7 53
e 7 54
e 7 55
e 7 56
e 7 57
e 7 59
e 7 60
e 7 61
e 7 62
e 7 64
e 7 69
e 7 72
e 7 74
e 7 77
e 7 78
e 7 79
e 7 81
e 8 10
e 8 13
e 8 15
e 8 20
e 8 25
e 8 26
e 8 27
e 8 29
e 8 31
e 8 32
e 8 33
e 8 34
e 8 35
e 8 37
e 8 38
e 8 41
e 8 43
e 8 45
e 8 46
e 8 48
e 8 51
e 8 52
e 8 53
e 8 57
e 8 62
e 8 63
e 8 64
e 8 66
e 8 67
e 8 71
e 8 72
e 8 78
e 8 79
e 9 10
e 9 16
e 9 17
e 9 18
e 9 19
e 9 21
e 9 22
e 9 23
e 9 24
e 9 25
e 9 26
e 9 28
e 9 31
e 9 34
e 9 36
e 9 39
e 9 41
e 9 42
e 9 44
e 9 46
e 9 47
e 9 49
e 9 52
e 9 54
e 9 57
e 9 58
e 9 60
e 9 62
e 9 64
e 9 65
e 9 67
e 9 68
e 9 69
e 9 72
e 9 73
e 9 74
e 9 77
e 9 78
e 10 13
e 10 14
e 10 19
e 10 20
e 10 22
e 10 24
e 10 27
e 10 28
e 10 31
e 10 33
e 10 37
e 10 39
e 10 40
e 10 41
e 10 47
e 10 52
e 10 54
e 10 56
e 10 58
e 10 62
e 10 63
e 10 67
e 10 69
e 10 70
e 10 73
e 10 77
e 10 78
e 10 82
e 11 12
e 11 13
e 11 14
e 11 15
e 11 16
e 11 19
e 11 20
e 11 24
e 11 29
e 11 30
e 11 32
e 11 33
e 11 34
e 11 35
e 11 40
e 11 42
e 11 45
e 11 46
e 11 55
e 11 56
e 11 61
e 11 62
e 11 63
e 11 64
e 11 70
e 11 72
e 11 73
e 11 74
e 11 75
e 11 77
e 11 78
e 11 79
e 11 80
e 11 82
e 12 13
e 12 16
e 12 17
e 12 18
e 12 19
e 12 22
e 12 24
e 12 26
e 12 28
e 12 29
e 12 31
e 12 33
e 12 38
e 12 39
e 12 40
e 12 41
e 12 43
e 12 44
e 12 53
e 12 55
e 12 59
e 12 60
e 12 64
e 12 65
e 12 66
e 12 69
e 12 70
e 12 72
e 12 76
e 12 78
e 12 79
e 12 81
e 13 14
e 13 15
e 13 16
e 13 20
e 13 21
e 13 22
e 13 24
e 13 25
e 13 26
e 13 27
e 13 28
e 13 31
e 13 35
e 13 36
e 13 37
e 13 38
e 13 42
e 13 43
e 13 45
e 13 49
e 13 53
e 13 55
e 13 57
e 13 60
e 13 63
e 13 65
e 13 68
e 13 70
e 13 72
e 13 73
e 13 76
e 13 77
e 13 79
e 13 80
e 13 81
e 13 82
e 14 16
e 14 18
e 14 19
e 14 20
e 14 21
e 14 22
e 14 24
e 14 25
e 14 27
e 14 29
e 14 30
e 14 32
e 14 33
e 14 34
e 14 36
e 14 40
e 14 41
e 14 42
e 14 45
e 14 49
e 14 51
e 14 52
e 14 55
e 14 57
e 14 58
e 14 59
e 14 60
e 14 63
e 14 66
e 14 67
e 14 69
e 14 70
e 14 72
e 14 73
e 14 79
e 14 81
e 15 18
e 15 20
e 15 24
e 15 27
e 15 28
e 15 29
e 15 30
e 15 31
e 15 32
e 15 33
e 15 35
e 15 37
e 15 38
e 15 40
e 15 47
e 15 48
e 15 50
e 15 51
e 15 57
e 15 61
e 15 64
e 15 68
e 15 69
e 15 70
e 15 71
e 15 74
e 15 77
e 15 78
e 15 81
e 16 17
e 16 21
e 16 23
e 16 24
e 16 27
e 16 28
e 16 29
e 16 30
e 16 32
e 16 33
e 16 34
e 16 35
e 16 36
e 16 40
e 16 43
e 16 45
e 16 48
e 16 49
e 16 50
e 16 52
e 16 53
e 16 54
e 16 56
e 16 57
e 16 58
e 16 62
e 16 63
e 16 64
e 16 65
e 16 66
e 16 74
e 16 75
e 16 77
e 16 79
e 16 82
e 17 19
e 17 20
e 17 21
e 17 24
e 17 26
e 17 27
e 17 28
e 17 29
e 17 32
e 17 34
e 17 38
e 17 39
e 17 43
e 17 44
e 17 46
e 17 52
e 17 54
e 17 55
e 17 56
e 17 57
e 17 58
e 17 59
e 17 60
e 17 61
e 17 64
e 17 70
e 17 71
e 17 72
e 17 74
e 17 75
e 17 76
e 17 77
e 17 78
e 17 79
e 17 82
e 18 19
e 18 22
e 18 23
e 18 25
e 18 27
e 18 30
e 18 32
e 18 33
e 18 34
e 18 37
e 18 39
e 18 41
e 18 42
e 18 44
e 18 51
e 18 52
e 18 57
e 18 59
e 18 60
e 18 62
e 18 63
e 18 65
e 18 66
e 18 67
e 18 68
e 18 71
e 18 72
e 18 73
e 18 74
e 18 75
e 18 77
e 18 80
e 19 21
e 19 22
e 19 23
e 19 24
e 19 28
e 19 31
e 19 34
e 19 35
e 19 36
e 19 37
e 19 38
e 19 39
e 19 43
e 19 44
e 19 45
e 19 48
e 19 49
e 19 51
e 19 54
e 19 55
e 19 56
e 19 57
e 19 58
e 19 60
e 19 61
e 19 62
e 19 66
e 19 67
e 19 68
e 19 69
e 19 71
e 19 72
e 19 73
e 19 74
e 19 76
e 19 77
e 19 78
e 19 79
e 19 80
e 20 31
e 20 32
e 20 34
e 20 35
e 20 39
e 20 47
e 20 49
e 20 50
e 20 51
e 20 53
e 20 54
e 20 55
e 20 56
e 20 58
e 20 60
e 20 62
e 20 64
e 20 65
e 20 66
e 20 67
e 20 68
e 20 71
e 20 72
e 20 75
e 20 77
e 20 78
e 20 82
e 21 22
e 21 26
e 21 27
e 21 28
e 21 29
e 21 30
e 21 31
e 21 32
e 21 33
e 21 35
e 21 39
e 21 42
e 21 43
e 21 44
e 21 49
e 21 50
e 21 52
e 21 54
e 21 55
e 21 56
e 21 59
e 21 61
e 21 65
e 21 70
e 21 72
e 21 75
e 21 77
e 21 78
e 21 79
e 21 80
e 21 81
e 21 82
e 22 26
e 22 30
e 22 31
e 22 33
e 22 37
e 22 41
e 22 44
e 22 45
e 22 48
e 22 51
e 22 55
e 22 58
e 22 59
e 22 60
e 22 72
e 22 74
e 22 76
e 22 77
e 22 80
e 22 81
e 23 24
e 23 25
e 23 31
e 23 32
e 23 35
e 23 37
e 23 40
e 23 41
e 23 42
e 23 43
e 23 44
e 23 45
e 23 53
e 23 54
e 23 55
e 23 56
e 23 58
e 23 59
e 23 60
e 23 61
e 23 63
e 23 65
e 23 66
e 23 69
e 23 70
e 23 72
e 23 73
e 23 74
e 23 76
e 23 78
e 23 79
e 23 80
e 24 26
e 24 29
e 24 31
e 24 32
e 24 33
e 24 34
e 24 35
e 24 36
e 24 38
e 24 44
e 24 45
e 24 46
e 24 47
e 24 49
e 24 50
e 24 58
e 24 62
e 24 64
e 24 65
e 24 68
e 24 69
e 24 72
e 24 73
e 24 78
e 24 79
e 24 80
e 24 81
e 25 26
e 25 29
e 25 31
e 25 33
e 25 35
e 25 37
e 25 38
e 25 40
e 25 42
e 25 44
e 25 45
e 25 46
e 25 50
e 25 51
e 25 52
e 25 53
e 25 58
e 25 59
e 25 60
e 25 67
e 25 70
e 25 71
e 25 73
e 25 74
e 25 76
e 25 77
e 25 80
e 25 81
e 26 27
e 26 29
e 26 30
e 26 33
e 26 36
e 26 38
e 26 39
e 26 41
e 26 42
e 26 43
e 26 47
e 26 49
e 26 50
e 26 53
e 26 54
e 26 55
e 26 56
e 26 58
e 26 61
e 26 62
e 26 63
e 26 65
e 26 67
e 26 78
e 26 79
e 26 81
e 27 31
e 27 33
e 27 34
e 27 36
e 27 37
e 27 39
e 27 41
e 27 45
e 27 46
e 27 49
e 27 52
e 27 53
e 27 56
e 27 61
e 27 66
e 27 69
e 27 77
e 27 79
e 27 80
e 27 82
e 28 30
e 28 31
e 28 33
e 28 34
e 28 35
e 28 37
e 28 38
e 28 45
e 28 46
e 28 47
e 28 48
e 28 52
e 28 53
e 28 56
e 28 58
e 28 59
e 28 62
e 28 64
e 28 65
e 28 66
e 28 67
e 28 68
e 28 69
e 28 70
e 28 72
e 28 74
e 28 78
e 28 79
e 28 81
e 29 30
e 29 35
e 29 36
e 29 37
e 29 38
e 29 39
e 29 40
e 29 41
e 29 44
e 29 45
e 29 47
e 29 48
e 29 51
e 29 52
e 29 53
e 29 54
e 29 55
e 29 56
e 29 65
e 29 66
e 29 67
e 29 68
e 29 72
e 29 74
e 29 75
e 29 79
e 29 81
e 30 31
e 30 32
e 30 34
e 30 36
e 30 39
e 30 42
e 30 45
e 30 49
e 30 51
e 30 52
e 30 54
e 30 55
e 30 62
e 30 66
e 30 69
e 30 72
e 30 75
e 30 77
e 30 78
e 31 32
e 31 35
e 31 39
e 31 40
e 31 41
e 31 42
e 31 49
e 31 51
e 31 52
e 31 54
e 31 55
e 31 57
e 31 58
e 31 60
e 31 62
e 31 67
e 31 68
e 31 70
e 31 74
e 31 75
e 31 76
e 31 79
e 32 33
e 32 35
e 32 38
e 32 39
e 32 40
e 32 41
e 32 42
e 32 43
e 32 44
e 32 45
e 32 47
e 32 49
e 32 50
e 32 52
e 32 56
e 32 57
e 32 58
e 32 61
e 32 62
e 32 64
e 32 66
e 32 67
e 32 68
e 32 70
e 32 72
e 32 74
e 32 76
e 32 78
e 32 82
e 33 34
e 33 35
e 33 37
e 33 38
e 33 39
e 33 40
e 33 41
e 33 42
e 33 43
e 33 44
e 33 46
e 33 47
e 33 51
e 33 52
e 33 53
e 33 54
e 33 55
e 33 58
e 33 59
e 33 64
e 33 66
e 33 67
e 33 69
e 33 70
e 33 76
e 33 77
e 33 80
e 33 81
e 34 36
e 34 37
e 34 40
e 34 41
e 34 42
e 34 43
e 34 47
e 34 48
e 34 49
e 34 52
e 34 53
e 34 54
e 34 56
e 34 58
e 34 60
e 34 64
e 34 65
e 34 67
e 34 68
e 34 70
e 34 72
e 34 74
e 34 75
e 34 77
e 34 78
e 34 80
e 35 36
e 35 38
e 35 40
e 35 46
e 35 49
e 35 51
e 35 56
e 35 58
e 35 61
e 35 63
e 35 64
e 35 65
e 35 67
e 35 68
e 35 69
e 35 70
e 35 71
e 35 74
e 35 76
e 35 77
e 35 78
e 35 80
e 35 82
e 36 37
e 36 40
e 36 42
e 36 44
e 36 49
e 36 50
e 36 51
e 36 53
e 36 55
e 36 56
e 36 57
e 36 58
e 36 59
e 36 62
e 36 63
e 36 64
e 36 65
e 36 66
e 36 68
e 36 69
e 36 70
e 36 75
e 36 76
e 36 78
e 36 79
e 36 81
e 36 82
e 37 39
e 37 40
e 37 41
e 37 43
e 37 44
e 37 45
e 37 46
e 37 47
e 37 48
e 37 51
e 37 52
e 37 55
e 37 58
e 37 62
e 37 65
e 37 68
e 37 70
e 37 72
e 37 74
e 37 75
e 37 76
e 37 77
e 37 78
e 37 79
e 37 81
e 38 39
e 38 41
e 38 43
e 38 44
e 38 45
e 38 47
e 38 48
e 38 49
e 38 50
e 38 51
e 38 52
e 38 55
e 38 57
e 38 58
e 38 59
e 38 61
e 38 62
e 38 64
e 38 66
e 38 70
e 38 71
e 38 72
e 38 73
e 38 74
e 38 76
e 38 79
e 38 81
e 39 42
e 39 43
e 39 44
e 39 45
e 39 46
e 39 47
e 39 49
e 39 51
e 39 52
e 39 54
e 39 55
e 39 57
e 39 58
e 39 64
e 39 69
e 39 71
e 39 72
e 39 74
e 39 77
e 39 79
e 39 81
e 39 82
e 40 41
e 40 42
e 40 43
e 40 44
e 40 46
e 40 55
e 40 58
e 40 59
e 40 60
e 40 61
e 40 62
e 40 63
e 40 66
e 40 67
e 40 70
e 40 71
e 40 73
e 40 75
e 40 77
e 40 78
e 40 80
e 41 42
e 41 46
e 41 49
e 41 50
e 41 52
e 41 53
e 41 54
e 41 55
e 41 56
e 41 61
e 41 62
e 41 63
e 41 64
e 41 65
e 41 66
e 41 68
e 41 71
e 41 72
e 41 76
e 41 77
e 41 82
e 42 48
e 42 51
e 42 53
e 42 55
e 42 56
e 42 59
e 42 60
e 42 61
e 42 63
e 42 66
e 42 67
e 42 68
e 42 70
e 42 71
e 42 74
e 42 75
e 42 77
e 42 78
e 42 80
e 42 82
e 43 44
e 43 45
e 43 46
e 43 47
e 43 49
e 43 51
e 43 52
e 43 53
e 43 56
e 43 58
e 43 59
e 43 60
e 43 62
e 43 64
e 43 66
e 43 70
e 43 71
e 43 73
e 43 74
e 43 81
e 44 45
e 44 53
e 44 54
e 44 55
e 44 60
e 44 63
e 44 64
e 44 68
e 44 70
e 44 71
e 44 75
e 44 76
e 44 78
e 44 80
e 44 82
e 45 46
e 45 47
e 45 49
e 45 50
e 45 51
e 45 53
e 45 54
e 45 55
e 45 57
e 45 60
e 45 64
e 45 67
e 45 70
e 45 71
e 45 74
e 45 75
e 45 77
e 45 81
e 46 47
e 46 48
e 46 50
e 46 51
e 46 53
e 46 54
e 46 61
e 46 62
e 46 64
e 46 68
e 46 71
e 46 78
e 46 79
e 47 48
e 47 50
e 47 52
e 47 55
e 47 56
e 47 59
e 47 60
e 47 62
e 47 63
e 47 64
e 47 65
e 47 67
e 47 70
e 47 71
e 47 73
e 47 74
e 47 76
e 47 79
e 47 81
e 47 82
e 48 53
e 48 54
e 48 55
e 48 56
e 48 57
e 48 60
e 48 61
e 48 62
e 48 63
e 48 64
e 48 65
e 48 67
e 48 72
e 48 73
e 48 74
e 48 75
e 48 78
e 48 81
e 49 52
e 49 56
e 49 57
e 49 59
e 49 60
e 49 65
e 49 70
e 49 71
e 49 73
e 49 74
e 49 81
e 50 51
e 50 52
e 50 54
e 50 55
e 50 56
e 50 57
e 50 58
e 50 59
e 50 61
e 50 68
e 50 71
e 50 73
e 50 75
e 50 79
e 50 80
e 50 81
e 50 82
e 51 54
e 51 60
e 51 67
e 51 69
e 51 70
e 51 72
e 51 74
e 51 75
e 51 79
e 51 80
e 51 81
e 52 53
e 52 56
e 52 57
e 52 58
e 52 59
e 52 60
e 52 62
e 52 63
e 52 68
e 52 70
e 52 71
e 52 72
e 52 74
e 52 75
e 52 76
e 52 79
e 52 81
e 53 56
e 53 62
e 53 63
e 53 64
e 53 67
e 53 76
e 53 77
e 53 79
e 53 82
e 54 58
e 54 60
e 54 61
e 54 62
e 54 63
e 54 65
e 54 67
e 54 68
e 54 69
e 54 71
e 54 73
e 54 76
e 54 77
e 54 79
e 55 57
e 55 58
e 55 59
e 55 61
e 55 62
e 55 67
e 55 68
e 55 69
e 55 71
e 55 73
e 55 74
e 55 78
e 55 81
e 56 62
e 56 63
e 56 67
e 56 69
e 56 74
e 56 75
e 56 76
e 56 77
e 56 79
e 57 59
e 57 61
e 57 65
e 57 69
e 57 71
e 57 72
e 57 73
e 57 76
e 57 77
e 57 78
e 57 81
e 58 59
e 58 61
e 58 64
e 58 65
e 58 66
e 58 68
e 58 70
e 58 71
e 58 72
e 58 73
e 58 74
e 58 75
e 58 76
e 58 78
e 59 60
e 59 62
e 59 66
e 59 67
e 59 68
e 59 71
e 59 72
e 59 73
e 59 74
e 59 76
e 59 77
e 60 64
e 60 65
e 60 66
e 60 69
e 60 70
e 60 73
e 60 75
e 60 77
e 60 79
e 60 80
e 60 81
e 60 82
e 61 66
e 61 72
e 61 77
e 61 78
e 61 82
e 62 63
e 62 66
e 62 67
e 62 75
e 62 76
e 62 77
e 62 79
e 62 81
e 62 82
e 63 64
e 63 65
e 63 67
e 63 68
e 63 69
e 63 70
e 63 71
e 63 72
e 63 74
e 63 75
e 63 77
e 63 80
e 64 68
e 64 71
e 64 73
e 64 74
e 64 78
e 64 80
e 64 81
e 65 73
e 65 76
e 65 77
e 65 79
e 65 82
e 66 68
e 66 69
e 66 70
e 66 71
e 66 80
e 67 68
e 67 69
e 67 70
e 67 71
e 67 73
e 67 75
e 67 77
e 67 80
e 67 81
e 68 69
e 68 70
e 68 73
e 68 75
e 68 76
e 68 78
e 68 79
e 68 81
e 68 82
e 69 70
e 69 71
e 69 72
e 69 74
e 69 81
e 70 71
e 70 77
e 70 78
e 70 79
e 70 82
e 71 76
e 71 77
e 71 78
e 71 81
e 72 81
e 73 74
e 73 75
e 73 76
e 73 78
e 73 80
e 73 81
e 74 75
e 74 77
e 74 79
e 74 82
e 75 77
e 75 79
e 76 77
e 76 78
e 76 79
e 76 81
e 77 78
e 77 79
e 77 81
e 77 82
e 78 80
e 78 81
e 78 82
e 79 80
e 80 82
e 81 82
